Rodando pra 1h

Optimize a model with 490129 rows, 734060 columns and 26879979 nonzeros
Coefficient statistics:
  Matrix range    [1e+00, 1e+04]
  Objective range [2e-01, 2e-01]
  Bounds range    [1e+00, 1e+04]
  RHS range       [1e+00, 1e+04]
Presolve removed 1 rows and 1 columns (presolve time = 5s) ...
Presolve removed 3 rows and 3 columns (presolve time = 11s) ...
Presolve removed 3 rows and 3 columns (presolve time = 23s) ...
Presolve removed 6 rows and 6 columns (presolve time = 33s) ...
Presolve removed 6 rows and 6 columns (presolve time = 42s) ...
Presolve removed 6 rows and 6 columns (presolve time = 46s) ...
Presolve removed 6 rows and 6 columns (presolve time = 53s) ...
Presolve removed 6 rows and 6 columns (presolve time = 56s) ...
Presolve removed 6 rows and 6 columns (presolve time = 62s) ...
Presolve removed 6 rows and 6 columns (presolve time = 65s) ...
Presolve removed 6 rows and 6 columns (presolve time = 72s) ...
Presolve removed 6 rows and 6 columns (presolve time = 78s) ...
Presolve removed 6 rows and 6 columns (presolve time = 81s) ...
Presolve removed 6 rows and 6 columns (presolve time = 87s) ...
Presolve removed 6 rows and 6 columns (presolve time = 91s) ...
Presolve removed 6 rows and 6 columns (presolve time = 97s) ...
Presolve removed 6 rows and 6 columns (presolve time = 100s) ...
Presolve removed 6 rows and 6 columns (presolve time = 107s) ...
Presolve removed 6 rows and 6 columns (presolve time = 113s) ...
Presolve removed 6 rows and 6 columns (presolve time = 116s) ...
Presolve removed 6 rows and 6 columns (presolve time = 123s) ...
Presolve removed 6 rows and 6 columns (presolve time = 126s) ...
Presolve removed 6 rows and 6 columns (presolve time = 132s) ...
Presolve removed 6 rows and 6 columns (presolve time = 136s) ...
Presolve removed 6 rows and 6 columns (presolve time = 142s) ...
Presolve removed 6 rows and 6 columns (presolve time = 145s) ...
Presolve removed 6 rows and 6 columns (presolve time = 152s) ...
Presolve removed 6 rows and 6 columns (presolve time = 158s) ...
Presolve removed 6 rows and 6 columns (presolve time = 161s) ...
Presolve removed 6 rows and 6 columns (presolve time = 168s) ...
Presolve removed 6 rows and 6 columns (presolve time = 171s) ...
Presolve removed 6 rows and 6 columns (presolve time = 177s) ...
Presolve removed 6 rows and 6 columns (presolve time = 191s) ...
Presolve removed 6 rows and 6 columns (presolve time = 196s) ...
Presolve removed 6 rows and 6 columns (presolve time = 221s) ...
Presolve removed 6 rows and 6 columns
Presolve time: 220.72s
Presolved: 490123 rows, 734054 columns, 26879937 nonzeros
Variable types: 489300 continuous, 244754 integer (244750 binary)
Optimize a model with 490123 rows, 734054 columns and 26879937 nonzeros
Coefficient statistics:
  Matrix range    [1e+00, 1e+04]
  Objective range [2e-01, 2e-01]
  Bounds range    [1e+00, 1e+04]
  RHS range       [1e+00, 2e+04]
Presolve removed 0 rows and 0 columns (presolve time = 8s) ...
Presolve removed 0 rows and 0 columns (presolve time = 10s) ...
Presolved: 490123 rows, 734054 columns, 26879937 nonzeros


Root simplex log...

Iteration    Objective       Primal Inf.    Dual Inf.      Time
       0    0.0000000e+00   2.114683e+03   0.000000e+00    271s
    1501    0.0000000e+00   0.000000e+00   0.000000e+00    273s

Root relaxation: objective 0.000000e+00, 1501 iterations, 14.85 seconds

    Nodes    |    Current Node    |     Objective Bounds      |     Work
 Expl Unexpl |  Obj  Depth IntInf | Incumbent    BestBd   Gap | It/Node Time

     0     0    0.00000    0  723          -    0.00000      -     - 3859s

Explored 0 nodes (178335 simplex iterations) in 3859.94 seconds
Thread count was 1 (of 4 available processors)

Time limit reached
Best objective -, best bound 0.000000000000e+00, gap -
Tempo: 3568.45 segundos

Error code = 10004
Var::get
